c Command line: hgen8 180 90
p cnf 180 283
52 31 171 8 0
23 165 26 33 0
174 54 65 59 0
152 34 9 150 0
5 64 135 83 0
74 22 151 76 0
133 63 41 149 0
143 67 90 81 0
11 80 101 89 0
4 159 105 127 0
164 68 106 85 0
139 134 60 49 0
160 177 168 162 0
42 16 50 92 0
114 73 107 175 0
78 145 157 146 0
43 163 113 7 0
142 12 29 161 0
45 70 20 25 0
121 30 102 6 0
138 153 97 109 0
51 176 170 144 0
17 154 147 57 0
79 126 44 131 0
110 10 53 132 0
96 111 28 15 0
86 61 38 37 0
116 155 128 122 0
172 69 27 158 0
123 103 19 178 0
75 32 94 95 0
112 3 100 39 0
35 136 117 56 0
180 71 77 13 0
125 141 82 93 0
130 104 108 179 0
14 88 18 58 0
-3 -4 0
-3 -5 0
-4 -5 0
-6 -7 0
-6 -8 0
-6 -9 0
-6 -10 0
-7 -8 0
-7 -9 0
-7 -10 0
-8 -9 0
-8 -10 0
-9 -10 0
-11 -12 0
-11 -13 0
-11 -14 0
-11 -15 0
-12 -13 0
-12 -14 0
-12 -15 0
-13 -14 0
-13 -15 0
-14 -15 0
-16 -17 0
-16 -18 0
-16 -19 0
-16 -20 0
-17 -18 0
-17 -19 0
-17 -20 0
-18 -19 0
-18 -20 0
-19 -20 0
-22 -23 0
-22 -25 0
-23 -25 0
-26 -27 0
-26 -28 0
-26 -29 0
-26 -30 0
-27 -28 0
-27 -29 0
-27 -30 0
-28 -29 0
-28 -30 0
-29 -30 0
-31 -32 0
-31 -33 0
-31 -34 0
-31 -35 0
-32 -33 0
-32 -34 0
-32 -35 0
-33 -34 0
-33 -35 0
-34 -35 0
-37 -38 0
-37 -39 0
-38 -39 0
-41 -42 0
-41 -43 0
-41 -44 0
-41 -45 0
-42 -43 0
-42 -44 0
-42 -45 0
-43 -44 0
-43 -45 0
-44 -45 0
-49 -50 0
-51 -52 0
-51 -53 0
-51 -54 0
-52 -53 0
-52 -54 0
-53 -54 0
-56 -57 0
-56 -58 0
-56 -59 0
-56 -60 0
-57 -58 0
-57 -59 0
-57 -60 0
-58 -59 0
-58 -60 0
-59 -60 0
-61 -63 0
-61 -64 0
-61 -65 0
-63 -64 0
-63 -65 0
-64 -65 0
-67 -68 0
-67 -69 0
-67 -70 0
-68 -69 0
-68 -70 0
-69 -70 0
-71 -73 0
-71 -74 0
-71 -75 0
-73 -74 0
-73 -75 0
-74 -75 0
-76 -77 0
-76 -78 0
-76 -79 0
-76 -80 0
-77 -78 0
-77 -79 0
-77 -80 0
-78 -79 0
-78 -80 0
-79 -80 0
-81 -82 0
-81 -83 0
-81 -85 0
-82 -83 0
-82 -85 0
-83 -85 0
-86 -88 0
-86 -89 0
-86 -90 0
-88 -89 0
-88 -90 0
-89 -90 0
-92 -93 0
-92 -94 0
-92 -95 0
-93 -94 0
-93 -95 0
-94 -95 0
-96 -97 0
-96 -100 0
-97 -100 0
-101 -102 0
-101 -103 0
-101 -104 0
-101 -105 0
-102 -103 0
-102 -104 0
-102 -105 0
-103 -104 0
-103 -105 0
-104 -105 0
-106 -107 0
-106 -108 0
-106 -109 0
-106 -110 0
-107 -108 0
-107 -109 0
-107 -110 0
-108 -109 0
-108 -110 0
-109 -110 0
-111 -112 0
-111 -113 0
-111 -114 0
-112 -113 0
-112 -114 0
-113 -114 0
-116 -117 0
-121 -122 0
-121 -123 0
-121 -125 0
-122 -123 0
-122 -125 0
-123 -125 0
-126 -127 0
-126 -128 0
-126 -130 0
-127 -128 0
-127 -130 0
-128 -130 0
-131 -132 0
-131 -133 0
-131 -134 0
-131 -135 0
-132 -133 0
-132 -134 0
-132 -135 0
-133 -134 0
-133 -135 0
-134 -135 0
-136 -138 0
-136 -139 0
-138 -139 0
-141 -142 0
-141 -143 0
-141 -144 0
-141 -145 0
-142 -143 0
-142 -144 0
-142 -145 0
-143 -144 0
-143 -145 0
-144 -145 0
-146 -147 0
-146 -149 0
-146 -150 0
-147 -149 0
-147 -150 0
-149 -150 0
-151 -152 0
-151 -153 0
-151 -154 0
-151 -155 0
-152 -153 0
-152 -154 0
-152 -155 0
-153 -154 0
-153 -155 0
-154 -155 0
-157 -158 0
-157 -159 0
-157 -160 0
-158 -159 0
-158 -160 0
-159 -160 0
-161 -162 0
-161 -163 0
-161 -164 0
-161 -165 0
-162 -163 0
-162 -164 0
-162 -165 0
-163 -164 0
-163 -165 0
-164 -165 0
-168 -170 0
-171 -172 0
-171 -174 0
-171 -175 0
-172 -174 0
-172 -175 0
-174 -175 0
-176 -177 0
-176 -178 0
-176 -179 0
-176 -180 0
-177 -178 0
-177 -179 0
-177 -180 0
-178 -179 0
-178 -180 0
-179 -180 0
